webassembly/ejemplos_dzn/folder5_json_89.dzn
TERM = { '.', 's(2)', 'in_1', 'local_1', 'in_2', 's(1)', 's(0)', 'in_0'};
null = '.';
s = 5;
n = 9;
ndeps = 2;
max_registers_sz = 3;
NR = 0;
registers = [| |];
dependencies = [|'i32.load16_s_1', 'i32.store16_2', |'i32.store16_2', 'i32.load_3'|];
GET_ENUM = { GET1, GET2, GET3};
SET_ENUM = { SET1, SET2, SET3};
TEE_ENUM = { TEE1, TEE2, TEE3};
N = 5;
OP = { 'i32.add_0', 'i32.load16_s_1', 'i32.store16_2', 'i32.load_3', 'local.get_0' };
in_ops = [2, 1, 2, 1, 0 ];
out_ops = [1, 1, 0, 1, 1 ];
in1 = ['s(1)', 'local_1', 's(0)', 'in_1', '.' ];
in2 = ['in_2', '.', 'in_0', '.', '.' ];
in3 = ['.', '.', '.', '.', '.' ];
out1 = ['s(2)', 's(0)', '.', 's(1)', 'local_1' ];
out2 = ['.', '.', '.', '.', '.' ];
out3 = ['.', '.', '.', '.', '.' ];
comm = [true, false, false, false, false ];
gas = [1, 1, 1, 1, 1 ];
sz = [1, 1, 1, 1, 1 ];
stor = [false, false, true, false, false ];
lb = [ 1, 1, 1, 1, 1 ];
ub = [ 5, 5, 5, 5, 5 ];
startstack = [ 'in_0', 'in_1', 'in_2', null, null, null, null, null, null ];
endstack = [ 's(2)', null, null, null, null, null, null, null, null ];
