webassembly/ejemplos_results/5/folder5_json_89.txt
value = 5;
fgas = [1, 1, 1, 1, 1];
fsize = [1, 1, 1, 1, 1];
states = 
[|    in_0, in_1, in_2,  '.', '.', '.', '.', '.', '.'
 | local_1, in_0, in_1, in_2, '.', '.', '.', '.', '.'
 |  's(0)', in_0, in_1, in_2, '.', '.', '.', '.', '.'
 |    in_1, in_2,  '.',  '.', '.', '.', '.', '.', '.'
 |  's(1)', in_2,  '.',  '.', '.', '.', '.', '.', '.'
 |  's(2)',  '.',  '.',  '.', '.', '.', '.', '.', '.'
 |];
register_states = 
[| '.', '.', '.'
 | '.', '.', '.'
 | '.', '.', '.'
 | '.', '.', '.'
 | '.', '.', '.'
 | '.', '.', '.'
 |];
program = [O('local.get_0'), O('i32.load16_s_1'), O('i32.store16_2'), O('i32.load_3'), O('i32.add_0')];
% time elapsed: 0.07 s
----------
==========
% time elapsed: 0.07 s
% [value > 4]
